row=9;
column=9;
n=6;
Board=[|-2,0,-2,1,2,0,-2,6,4|0,4,0,6,-2,0,3,-2,1|0,0,0,2,0,-2,-2,4,5|1,-2,5,0,0,-2,6,2,-2|6,2,-2,4,-2,3,5,1,-2|-2,6,4,-2,0,1,2,5,3|-2,-2,6,-2,5,4,1,3,0|2,1,-2,5,0,6,4,0,-2|4,5,3,-2,1,0,-2,-2,6|];
